(set-logic QF_LIA)
(set-info :ran/ran2.smt2)
(set-info :smt-lib-version 2.0)
(declare-fun x1 () Int)
(declare-fun x2 () Int)
(declare-fun x3 () Int)
(declare-fun x4 () Int)
(assert (<= (+ (* 10 x1) (* (- 9) x2) (* 0 x3) (* 1 x4) ) (- 70)))
(assert (<= (+ (* (- 4) x1) (* 7 x2) (* (- 5) x3) (* 3 x4) ) 187))
(assert (<= (+ (* 1 x1) (* 7 x2) (* 3 x3) (* 0 x4) ) 44))
(assert (<= (+ (* 3 x1) (* 10 x2) (* (- 6) x3) (* (- 4) x4) ) (- 132)))
(assert (<= (+ (* (- 6) x1) (* 6 x2) (* 9 x3) (* 3 x4) ) (- 163)))
(assert (<= (+ (* (- 4) x1) (* 5 x2) (* 7 x3) (* (- 10) x4) ) 118))
(assert (<= (+ (* 10 x1) (* 8 x2) (* (- 6) x3) (* (- 3) x4) ) 142))
(assert (<= (+ (* 0 x1) (* 3 x2) (* (- 7) x3) (* 4 x4) ) (- 66)))
(assert (<= (+ (* 1 x1) (* 0 x2) (* 0 x3) (* 0 x4) ) 199))
(assert (<= (+ (* (- 1) x1) (* 0 x2) (* 0 x3) (* 0 x4) ) 199))
(assert (<= (+ (* 0 x1) (* 1 x2) (* 0 x3) (* 0 x4) ) 199))
(assert (<= (+ (* 0 x1) (* (- 1) x2) (* 0 x3) (* 0 x4) ) 199))
(assert (<= (+ (* 0 x1) (* 0 x2) (* 1 x3) (* 0 x4) ) 199))
(assert (<= (+ (* 0 x1) (* 0 x2) (* (- 1) x3) (* 0 x4) ) 199))
(assert (<= (+ (* 0 x1) (* 0 x2) (* 0 x3) (* 1 x4) ) 199))
(assert (<= (+ (* 0 x1) (* 0 x2) (* 0 x3) (* (- 1) x4) ) 199))
